20
1 0 3
2 0 3
2 1 1
3 0 4
3 1 4
3 2 1
4 0 5
4 1 1
4 2 4
4 3 2
5 0 1
5 1 4
5 2 2
5 3 3
5 4 2
6 0 1
6 1 1
6 2 1
6 3 4
6 4 5
6 5 3
7 0 4
7 1 2
7 2 5
7 3 2
7 4 2
7 5 5
7 6 4
8 0 3
8 1 2
8 2 1
8 3 3
8 4 1
8 5 5
8 6 5
8 7 1
9 0 3
9 1 5
9 2 2
9 3 3
9 4 2
9 5 4
9 6 4
9 7 2
9 8 2
10 0 5
10 1 2
10 2 4
10 3 2
10 4 4
10 5 1
10 6 2
10 7 4
10 8 3
10 9 1
11 0 4
11 1 1
11 2 5
11 3 5
11 4 2
11 5 1
11 6 5
11 7 2
11 8 5
11 9 2
11 10 3
12 0 2
12 1 2
12 2 5
12 3 4
12 4 1
12 5 3
12 6 2
12 7 5
12 8 1
12 9 4
12 10 5
12 11 1
13 0 4
13 1 2
13 2 1
13 3 5
13 4 3
13 5 3
13 6 5
13 7 4
13 8 2
13 9 5
13 10 2
13 11 5
13 12 2
14 0 3
14 1 3
14 2 2
14 3 2
14 4 1
14 5 1
14 6 4
14 7 3
14 8 5
14 9 4
14 10 2
14 11 4
14 12 5
14 13 3
15 0 3
15 1 5
15 2 4
15 3 5
15 4 5
15 5 4
15 6 5
15 7 4
15 8 3
15 9 2
15 10 2
15 11 1
15 12 2
15 13 5
15 14 4
16 0 2
16 1 4
16 2 2
16 3 5
16 4 3
16 5 5
16 6 3
16 7 4
16 8 1
16 9 4
16 10 5
16 11 4
16 12 5
16 13 5
16 14 5
16 15 5
17 0 2
17 1 1
17 2 1
17 3 1
17 4 3
17 5 4
17 6 5
17 7 2
17 8 4
17 9 5
17 10 3
17 11 1
17 12 5
17 13 4
17 14 5
17 15 1
17 16 4
18 0 4
18 1 5
18 2 1
18 3 5
18 4 5
18 5 1
18 6 5
18 7 3
18 8 3
18 9 1
18 10 3
18 11 3
18 12 1
18 13 5
18 14 2
18 15 3
18 16 2
18 17 5
19 0 2
19 1 5
19 2 1
19 3 1
19 4 5
19 5 1
19 6 5
19 7 2
19 8 5
19 9 1
19 10 2
19 11 1
19 12 2
19 13 1
19 14 5
19 15 4
19 16 4
19 17 3
19 18 1
